Problem:    
Rows:       256
Columns:    89 (72 integer, 72 binary)
Non-zeros:  924
Status:     INTEGER OPTIMAL
Objective:  value = 68.220121 (MINimum)

   No.   Row name        Activity     Lower bound   Upper bound
------ ------------    ------------- ------------- -------------
     1 r.5                   1092.22             0               
     2 r.6                  -1007.04      -1008.23               
     3 r.7                   68.2201             0               
     4 r.8                   35.1683      -1010.39               
     5 r.9                   68.2201             0               
     6 r.10                  48.6211      -1006.67               
     7 r.11                  1092.22             0               
     8 r.12                 -975.379      -1010.62               
     9 r.13                  68.2201             0               
    10 r.14                  48.6211      -996.321               
    11 r.15                  1092.22             0               
    12 r.16                 -994.424      -1005.45               
    13 r.17                  68.2201             0               
    14 r.18                  1.18311      -1009.09               
    15 r.19                  1092.22             0               
    16 r.20                 -1012.97      -1014.16               
    17 r.21                  1092.22             0               
    18 r.22                 -997.828      -1010.29               
    19 r.23                  68.2201             0               
    20 r.24                   6.1257      -1013.66               
    21 r.25                  1092.22             0               
    22 r.26                  -955.78      -990.948               
    23 r.27                  68.2201             0               
    24 r.28                  68.2201      -1004.41               
    25 r.29                  68.2201             0               
    26 r.30                  68.2201      -990.726               
    27 r.31                  1092.22             0               
    28 r.32                  -955.78       -1004.4               
    29 r.33                  1092.22             0               
    30 r.34                 -1022.82      -1022.82               
    31 r.35                  68.2201             0               
    32 r.36                  1.18311      -1015.96               
    33 r.37                        1             1             = 
    34 r.38                        1             1             = 
    35 r.39                        1             1             = 
    36 r.40                        1             1             = 
    37 r.41                        1             1             = 
    38 r.42                        1             1             = 
    39 r.43                        1             1             = 
    40 r.44                        1             1             = 
    41 r.45                     1025             2               
    42 r.46                    -1025         -1025               
    43 r.47                  2079.66      -1006.67               
    44 r.48                     1025             2               
    45 r.49                    -1025         -1025               
    46 r.50                  2061.45      -1010.62               
    47 r.51                     1025             2               
    48 r.52                    -1025         -1025               
    49 r.53                  2079.66      -996.321               
    50 r.54                     1025             2               
    51 r.55                    -1025         -1025               
    52 r.56                  2042.41      -1005.45               
    53 r.57                     1025             2               
    54 r.58                    -1025         -1025               
    55 r.59                  2032.23      -1009.09               
    56 r.60                     1025             2               
    57 r.61                    -1025         -1025               
    58 r.62                  2023.86      -1014.16               
    59 r.63                        2             2               
    60 r.64                       -2         -1025               
    61 r.65                 -1010.29      -1010.29               
    62 r.66                     1024             2               
    63 r.67                    -1024         -1025               
    64 r.68                  2014.01      -1013.66               
    65 r.69                 -972.738      -990.948               
    66 r.70                   51.262      -1004.41               
    67 r.71                 -990.948      -990.948               
    68 r.72                  33.0518      -1004.41               
    69 r.73                     1025             2               
    70 r.74                    -1025         -1025               
    71 r.75                  2099.26      -990.726               
    72 r.76                     1025             2               
    73 r.77                    -1025         -1025               
    74 r.78                  2081.05       -1004.4               
    75 r.79                        0             0               
    76 r.80                  33.9852             0               
    77 r.81                        0             0               
    78 r.82                  33.9852             0               
    79 r.83                     1025             2               
    80 r.84                    -1025         -1025               
    81 r.85                  2016.34        15.775               
    82 r.86                     1025             2               
    83 r.87                    -1025         -1025               
    84 r.88                  2034.55       13.6092               
    85 r.89                     1024             2               
    86 r.90                    -1024         -1025               
    87 r.91                     2048      -996.321               
    88 r.92                        2             2               
    89 r.93                       -2         -1025               
    90 r.94                  -19.045      -1005.45               
    91 r.95                     1024             2               
    92 r.96                    -1024         -1025               
    93 r.97                  2000.56      -1009.09               
    94 r.98                        2             2               
    95 r.99                       -2         -1025               
    96 r.100                -37.5933      -1014.16               
    97 r.101                    1025             2               
    98 r.102                   -1025         -1025               
    99 r.103                 2030.05      -1010.29               
   100 r.104                    1025             2               
   101 r.105                   -1025         -1025               
   102 r.106                 2000.56      -1013.66               
   103 r.107                    1025             2               
   104 r.108                   -1025         -1025               
   105 r.109                  2067.6      -990.948               
   106 r.110                    1025             2               
   107 r.111                   -1025         -1025               
   108 r.112                  2067.6      -1004.41               
   109 r.113                  19.599      -990.726               
   110 r.114                 -1004.4       -1004.4               
   111 r.115                  19.599      -990.726               
   112 r.116                 -1004.4       -1004.4               
   113 r.117                  47.438             0               
   114 r.118                  34.056             0               
   115 r.119                  47.438             0               
   116 r.120                  34.056             0               
   117 r.121                    1025             2               
   118 r.122                   -1025         -1025               
   119 r.123                 2016.34        15.775               
   120 r.124                    1025             2               
   121 r.125                   -1025         -1025               
   122 r.126                 2053.59       13.6092               
   123 r.127                    1024             2               
   124 r.128                   -1024         -1025               
   125 r.129                    2048       17.3301               
   126 r.130                       2             2               
   127 r.131                      -2         -1025               
   128 r.132                  19.045        13.382               
   129 r.133                  47.438             0               
   130 r.134                  9.8447             0               
   131 r.135                 37.5933             0               
   132 r.136                       0             0               
   133 r.137                    1025             2               
   134 r.138                   -1025         -1025               
   135 r.139                 2030.05      -1010.29               
   136 r.140                    1025             2               
   137 r.141                   -1025         -1025               
   138 r.142                 2019.61      -1013.66               
   139 r.143                    1025             2               
   140 r.144                   -1025         -1025               
   141 r.145                  2067.6      -990.948               
   142 r.146                    1025             2               
   143 r.147                   -1025         -1025               
   144 r.148                 2086.64      -1004.41               
   145 r.149                  19.599      -990.726               
   146 r.150                 -1004.4       -1004.4               
   147 r.151                  38.644      -990.726               
   148 r.152                -985.356       -1004.4               
   149 r.153                  47.438             0               
   150 r.154                  9.8447             0               
   151 r.155                  47.438             0               
   152 r.156                  9.8447             0               
   153 r.157                    1025             2               
   154 r.158                   -1025         -1025               
   155 r.159                 2063.77        15.775               
   156 r.160                    1025             2               
   157 r.161                   -1025         -1025               
   158 r.162                 2072.14       13.6092               
   159 r.163                    1024             2               
   160 r.164                   -1024         -1025               
   161 r.165                 2095.44       17.3301               
   162 r.166                       2             2               
   163 r.167                      -2         -1025               
   164 r.168                 37.5933        13.382               
   165 r.169                    1025             2               
   166 r.170                   -1025         -1025               
   167 r.171                 2077.49      -1010.29               
   168 r.172                    1025             2               
   169 r.173                   -1025         -1025               
   170 r.174                 2038.16      -1013.66               
   171 r.175                    1025             2               
   172 r.176                   -1025         -1025               
   173 r.177                 2115.04      -990.948               
   174 r.178                    1025             2               
   175 r.179                   -1025         -1025               
   176 r.180                 2105.19      -1004.41               
   177 r.181                  67.037      -990.726               
   178 r.182                -956.963       -1004.4               
   179 r.183                 57.1923      -990.726               
   180 r.184                -966.808       -1004.4               
   181 r.185                       0             0               
   182 r.186                       0             0               
   183 r.187                       0             0               
   184 r.188                       0             0               
   185 r.189                       2             2               
   186 r.190                      -2         -1025               
   187 r.191                 1005.79        15.775               
   188 r.192                    1024             2               
   189 r.193                   -1024         -1025               
   190 r.194                 2086.93       13.6092               
   191 r.195                    1025             2               
   192 r.196                   -1025         -1025               
   193 r.197                 2061.45       17.3301               
   194 r.198                    1025             2               
   195 r.199                   -1025         -1025               
   196 r.200                 2100.38        13.382               
   197 r.201                    1025             2               
   198 r.202                   -1025         -1025               
   199 r.203                 2061.45       27.6794               
   200 r.204                    1025             2               
   201 r.205                   -1025         -1025               
   202 r.206                 2081.34       18.5483               
   203 r.207                    1025             2               
   204 r.208                   -1025         -1025               
   205 r.209                 2014.01       14.9061               
   206 r.210                    1025             2               
   207 r.211                   -1025         -1025               
   208 r.212                 2062.79        9.8447               
   209 r.213                -990.948      -990.948               
   210 r.214                 33.0518      -1004.41               
   211 r.215                 -952.02      -990.948               
   212 r.216                 71.9796      -1004.41               
   213 r.217                 33.0518      -990.726               
   214 r.218                -990.948       -1004.4               
   215 r.219                 71.9796      -990.726               
   216 r.220                 -952.02       -1004.4               
   217 r.221                  15.775             0               
   218 r.222                       0             0               
   219 r.223                  15.775             0               
   220 r.224                       0             0               
   221 r.225                    1025             2               
   222 r.226                   -1025         -1025               
   223 r.227                  2028.4       17.3301               
   224 r.228                    1025             2               
   225 r.229                   -1025         -1025               
   226 r.230                  2028.4        13.382               
   227 r.231                    1025             2               
   228 r.232                   -1025         -1025               
   229 r.233                  2028.4       27.6794               
   230 r.234                    1025             2               
   231 r.235                   -1025         -1025               
   232 r.236                 2009.36       18.5483               
   233 r.237                    1025             2               
   234 r.238                   -1025         -1025               
   235 r.239                 1980.96       14.9061               
   236 r.240                    1025             2               
   237 r.241                   -1025         -1025               
   238 r.242                 1990.81        9.8447               
   239 r.243                    1025             2               
   240 r.244                   -1025         -1025               
   241 r.245                    2048      -990.726               
   242 r.246                    1025             2               
   243 r.247                   -1025         -1025               
   244 r.248                    2048       -1004.4               
   245 r.249                    1025             2               
   246 r.250                   -1025         -1025               
   247 r.251                 1996.74        15.775               
   248 r.252                    1025             2               
   249 r.253                   -1025         -1025               
   250 r.254                 2014.95       13.6092               
   251 r.255                    1025             2               
   252 r.256                   -1025         -1025               
   253 r.257                    2048       33.0518               
   254 r.258                    1025             2               
   255 r.259                   -1025         -1025               
   256 r.260                    2048       19.5906               

   No. Column name       Activity     Lower bound   Upper bound
------ ------------    ------------- ------------- -------------
     1 tt                    68.2201             0               
     2 s_1_1        *              1             0             1 
     3 t_1_1                  51.262             0               
     4 s_1_6        *              1             0             1 
     5 s_2_1        *              0             0             1 
     6 t_2_1                 33.0518             0               
     7 s_2_6        *              0             0             1 
     8 s_1_2        *              0             0             1 
     9 t_1_2                  19.599             0               
    10 s_1_7        *              0             0             1 
    11 s_2_2        *              1             0             1 
    12 t_2_2                  19.599             0               
    13 s_2_7        *              1             0             1 
    14 s_1_3        *              0             0             1 
    15 t_1_3                  19.599             0               
    16 s_2_3        *              1             0             1 
    17 t_2_3                  38.644             0               
    18 s_1_4        *              0             0             1 
    19 t_1_4                  67.037             0               
    20 s_2_4        *              1             0             1 
    21 t_2_4                 57.1923             0               
    22 s_1_5        *              1             0             1 
    23 t_1_5                 33.0518             0               
    24 s_2_5        *              0             0             1 
    25 t_2_5                 71.9796             0               
    26 t_1_6                       0             0               
    27 t_2_6                       0             0               
    28 t_1_7                       0             0               
    29 t_2_7                       0             0               
    30 s_1_8        *              1             0             1 
    31 t_1_8                  67.037             0               
    32 s_2_8        *              0             0             1 
    33 t_2_8                  67.037             0               
    34 r_1_1_2      *              1             0             1 
    35 u_1_1_2      *              0             0             1 
    36 r_2_1_2      *              1             0             1 
    37 u_2_1_2      *              0             0             1 
    38 r_1_1_3      *              1             0             1 
    39 u_1_1_3      *              0             0             1 
    40 r_2_1_3      *              1             0             1 
    41 u_2_1_3      *              0             0             1 
    42 r_1_1_4      *              1             0             1 
    43 u_1_1_4      *              0             0             1 
    44 r_2_1_4      *              1             0             1 
    45 u_2_1_4      *              0             0             1 
    46 r_1_1_5      *              0             0             1 
    47 u_1_1_5      *              1             0             1 
    48 r_2_1_5      *              1             0             1 
    49 u_2_1_5      *              0             0             1 
    50 r_1_1_7      *              1             0             1 
    51 u_1_1_7      *              0             0             1 
    52 r_2_1_7      *              1             0             1 
    53 u_2_1_7      *              0             0             1 
    54 r_1_2_3      *              1             0             1 
    55 u_1_2_3      *              0             0             1 
    56 r_2_2_3      *              0             0             1 
    57 u_2_2_3      *              0             0             1 
    58 r_1_2_4      *              1             0             1 
    59 u_1_2_4      *              0             0             1 
    60 r_2_2_4      *              0             0             1 
    61 u_2_2_4      *              0             0             1 
    62 r_1_2_5      *              1             0             1 
    63 u_1_2_5      *              0             0             1 
    64 r_2_2_5      *              1             0             1 
    65 u_2_2_5      *              0             0             1 
    66 r_1_2_6      *              1             0             1 
    67 u_1_2_6      *              0             0             1 
    68 r_2_2_6      *              1             0             1 
    69 u_2_2_6      *              0             0             1 
    70 r_1_3_5      *              1             0             1 
    71 u_1_3_5      *              0             0             1 
    72 r_2_3_5      *              1             0             1 
    73 u_2_3_5      *              0             0             1 
    74 r_1_3_6      *              1             0             1 
    75 u_1_3_6      *              0             0             1 
    76 r_2_3_6      *              1             0             1 
    77 u_2_3_6      *              0             0             1 
    78 r_1_4_5      *              1             0             1 
    79 u_1_4_5      *              0             0             1 
    80 r_2_4_5      *              1             0             1 
    81 u_2_4_5      *              0             0             1 
    82 r_1_4_6      *              1             0             1 
    83 u_1_4_6      *              0             0             1 
    84 r_2_4_6      *              1             0             1 
    85 u_2_4_6      *              0             0             1 
    86 r_1_6_7      *              1             0             1 
    87 u_1_6_7      *              0             0             1 
    88 r_2_6_7      *              1             0             1 
    89 u_2_6_7      *              0             0             1 

Integer feasibility conditions:

KKT.PE: max.abs.err = 4.55e-13 on row 43
        max.rel.err = 1.11e-16 on row 226
        High quality

KKT.PB: max.abs.err = 1.14e-13 on row 61
        max.rel.err = 1.15e-16 on row 209
        High quality

End of output
